RAW/CMTT/fspd-mid/CMT3T.vrp_seed-1.out
798.0720591	2.241	142.399
