RAW/CMTT/fspd-mid/CMT3T.vrp_seed-1.sol
Route #1: 27 31 10 62 11 19 47 48 82 7 88 52
Route #2: 89 18 83 60 5 84 17 45 8 46 36 49 64 63 90 32 30 70 1 69
Route #3: 53 40 21 73 72 4 54 24 29 3 68 80 12 28
Route #4: 6 96 59 93 85 91 100 98 37 92 97 95 94
Route #5: 26 55 25 39 67 23 56 75 74 22 41 57 2 58
Route #6: 76 77 79 78 34 35 71 65 66 20 51 9 81 33 50
Route #7: 13 87 42 15 43 14 44 38 86 16 61 99
Cost 798.072059